Optimal - objective value 20167.00000000
      7 x0_8                   1                      25
     18 x1_7                   1                       0
     29 x2_6                   1                       0
     47 x3_12                  1                       0
     48 x4_0                   1                       0
     61 x5_1                   1         29.0000000000002
     81 x6_10                  1                       0
     94 x7_11                  1                       0
    101 x8_5                   1                       0
    112 x9_4                   1         -16.0000000000004
    129 x10_9                  1                       0
    135 x11_3                  1                       0
    146 x12_2                  1         -15.9999999999994
    156 u1                    18                       0
    157 u2                    50                       0
    158 u3                    36                       0
    159 u4                    76                       0
    160 u5                    11                       0
    161 u6                    60                       0
    162 u7                    26                       0
    163 u8                     4                       0
    164 u9                    67                       0
    165 u10                   63                       0
    166 u11                   34                       0
    167 u12                   43                       0
